echo

start molecule

title "Title"
charge 1

geometry units angstroms print xyz autosym
   C        1.77426        1.51664       -0.09049
   C        2.50942        0.32993       -0.13959
   C        1.85715       -0.90522       -0.12963
   C        0.45655       -0.96336       -0.08145
   C       -0.29592        0.23673       -0.04915
   C        0.37332        1.48075       -0.04130
   C       -1.70897        0.17841       -0.02391
   C       -2.34828       -1.06946        0.00643
   C       -1.60023       -2.24896       -0.01152
   C       -0.20558       -2.19965       -0.06235
   C       -0.41452        2.76017        0.06090
   H        2.29925        2.46388       -0.08221
   H        3.59053        0.36754       -0.17558
   H        2.44716       -1.81358       -0.15876
   H       -3.42937       -1.12935        0.03340
   H       -2.10470       -3.20650        0.00674
   H        0.35483       -3.12682       -0.08219
   H        0.15370        3.63259       -0.32692
   C       -2.54162        1.43957       -0.03850
   C       -1.76022        2.61484       -0.63023
   H       -2.35164        3.54922       -0.53267
   H       -3.43605        1.29991       -0.68321
end

basis
  * library 6-31+G*
end

dft
  xc b3lyp
  mult 1
end

task dft optimize
